; benchmark generated from python API
(set-info :status unknown)
(declare-datatypes ((RealState 0)) (((RMk1 (rval1 Real)) (RMk2 (rval2 Real)))))
 (assert
 (forall ((|v9:0| Real) )(exists ((|v8:1_st| RealState) (val!505 Real) )(forall ((|v7:2| Real) )(exists ((|v6:3_st| RealState) (val!506 Real) )(forall ((|v5:4| Real) )(exists ((|v4:5_st| RealState) (val!507 Real) )(forall ((|v3:6| Real) )(exists ((|v2:7_st| RealState) (val!508 Real) )(forall ((|v1:8| Real) )(exists ((|v0:9_st| RealState) (val!509 Real) )(let (($x1208 (<= (+ (+ (* 0.0 |v5:4|) (* (- 2.0) |v1:8|)) (* (- 9.0) |v5:4|)) 6.0)))
 (let (($x1308 (<= (+ (+ (* 13.0 |v9:0|) (* 18.0 (rval2 |v4:5_st|))) (* (- 14.0) |v3:6|)) 5.0)))
 (let ((?x251 (- 1.0)))
 (let ((?x768 (+ (+ (* (- 2.0) |v7:2|) (* (- 8.0) |v7:2|)) (* (- 6.0) (rval2 |v2:7_st|)))))
 (let ((?x937 (- 11.0)))
 (let ((?x1238 (+ (+ (* 6.0 (rval2 |v0:9_st|)) (* ?x251 |v9:0|)) (* (- 5.0) (rval2 |v2:7_st|)))))
 (let ((?x1053 (rval2 |v0:9_st|)))
 (let ((?x218 (* 15.0 ?x1053)))
 (let (($x1262 (<= (+ (+ (* 7.0 (rval2 |v6:3_st|)) (* (- 9.0) |v5:4|)) ?x218) 8.0)))
 (let ((?x766 (+ (+ (* (- 5.0) (rval2 |v8:1_st|)) (* (- 3.0) |v9:0|)) (* 14.0 |v5:4|))))
 (let ((?x330 (+ (+ (* (- 4.0) (rval2 |v8:1_st|)) (* (- 9.0) (rval2 |v2:7_st|))) (* 10.0 (rval2 |v8:1_st|)))))
 (let (($x1151 (<= (+ (+ (* 17.0 |v1:8|) (* ?x937 |v1:8|)) (* (- 4.0) (rval2 |v4:5_st|))) 19.0)))
 (let (($x1009 (or (and (or $x1151 (<= ?x330 18.0)) (or (<= ?x766 12.0) $x1262)) (and (or (<= ?x1238 ?x937) (<= ?x768 ?x251)) (and $x1308 $x1208)))))
 (let ((?x1382 (* 10.0 |v5:4|)))
 (let (($x107 (<= (+ (+ (* (- 8.0) ?x1053) (* (- 9.0) (rval2 |v4:5_st|))) ?x1382) 15.0)))
 (let ((?x899 (+ (+ (* 7.0 (rval2 |v4:5_st|)) (* (- 15.0) |v9:0|)) (* (- 20.0) |v5:4|))))
 (let ((?x1034 (+ (+ (* 14.0 (rval2 |v6:3_st|)) (* (- 5.0) |v9:0|)) (* 18.0 (rval2 |v6:3_st|)))))
 (let ((?x1129 (+ (+ (* 7.0 |v3:6|) (* (- 7.0) |v3:6|)) (* (- 18.0) (rval2 |v6:3_st|)))))
 (let (($x191 (<= (+ (+ (* 13.0 |v5:4|) (* 5.0 (rval2 |v8:1_st|))) (* 20.0 |v7:2|)) 15.0)))
 (let ((?x547 (+ (+ (* 15.0 |v3:6|) (* ?x251 (rval2 |v2:7_st|))) (* 14.0 (rval2 |v2:7_st|)))))
 (let (($x1331 (<= (+ (+ (* 10.0 |v9:0|) (* 5.0 |v3:6|)) (* 13.0 (rval2 |v6:3_st|))) 4.0)))
 (let (($x305 (and (and (and $x1331 (<= ?x547 9.0)) (and $x191 (<= ?x1129 19.0))) (or (and (<= ?x1034 20.0) (<= ?x899 6.0)) $x107))))
 (let (($x1330 (<= (+ (+ (* 3.0 |v3:6|) (* (- 2.0) (rval2 |v6:3_st|))) (* 7.0 |v9:0|)) 13.0)))
 (let (($x651 (and $x1330 (<= (+ (+ (* 14.0 |v7:2|) (* 5.0 |v7:2|)) (* 15.0 |v5:4|)) 16.0))))
 (let ((?x997 (+ (+ (* (- 10.0) |v3:6|) (* (- 2.0) (rval2 |v8:1_st|))) (* 6.0 |v3:6|))))
 (let ((?x571 (- 13.0)))
 (let ((?x1206 (+ (+ (* 2.0 |v1:8|) (* (- 4.0) (rval2 |v8:1_st|))) (* (- 14.0) ?x1053))))
 (let ((?x1028 (- 17.0)))
 (let ((?x27 (+ (+ (* 14.0 |v7:2|) (* 9.0 (rval2 |v4:5_st|))) (* (- 9.0) (rval2 |v6:3_st|)))))
 (let (($x246 (<= (+ (+ (* 15.0 |v7:2|) (* ?x937 |v7:2|)) (* (- 8.0) |v7:2|)) 18.0)))
 (let ((?x798 (+ (+ (* 13.0 (rval2 |v8:1_st|)) (* (- 6.0) (rval2 |v4:5_st|))) (* 2.0 |v9:0|))))
 (let (($x179 (and (and (and (<= ?x798 ?x1028) $x246) (or (<= ?x27 ?x1028) (<= ?x1206 ?x571))) (or (<= ?x997 18.0) $x651))))
 (let (($x1246 (<= (+ (+ (* 15.0 |v7:2|) (* 12.0 (rval2 |v2:7_st|))) (* 4.0 |v7:2|)) ?x1028)))
 (let ((?x579 (- 10.0)))
 (let ((?x297 (rval2 |v4:5_st|)))
 (let ((?x904 (* 10.0 ?x297)))
 (let (($x728 (<= (+ (+ (* 2.0 (rval2 |v2:7_st|)) (* (- 18.0) (rval2 |v2:7_st|))) ?x904) ?x579)))
 (let ((?x108 (rval2 |v6:3_st|)))
 (let ((?x1158 (* 19.0 ?x108)))
 (let ((?x1214 (* 5.0 |v7:2|)))
 (let (($x1370 (<= (+ (+ (* (- 5.0) (rval2 |v8:1_st|)) (* 6.0 (rval2 |v8:1_st|))) ?x1214) 8.0)))
 (let (($x821 (and $x1370 (<= (+ (+ (* 20.0 (rval2 |v2:7_st|)) (* 4.0 ?x297)) ?x1158) 17.0))))
 (let ((?x1249 (- 6.0)))
 (let ((?x640 (+ (+ (* (- 8.0) ?x1053) (* (- 18.0) |v5:4|)) (* (- 15.0) ?x297))))
 (let (($x705 (or (<= ?x640 ?x1249) (<= (+ (+ |v9:0| (* ?x937 (rval2 |v2:7_st|))) (* 15.0 ?x108)) (- 16.0)))))
 (let ((?x115 (- 4.0)))
 (let (($x581 (<= (+ (+ (* ?x571 |v5:4|) (* (- 16.0) |v9:0|)) (* 12.0 |v3:6|)) 15.0)))
 (let (($x662 (or $x581 (<= (+ (+ (* 3.0 (rval2 |v8:1_st|)) ?x1214) (* 13.0 |v1:8|)) ?x115))))
 (let (($x1207 (or (or (and (or $x662 $x705) (and $x821 (or $x728 $x1246))) $x179) (and $x305 $x1009))))
 (let (($x945 (not (= |v0:9_st| (RMk1 val!509)))))
 (let (($x729 (not (= |v2:7_st| (RMk1 val!508)))))
 (let (($x655 (not (= |v4:5_st| (RMk1 val!507)))))
 (let (($x501 (not (= |v6:3_st| (RMk1 val!506)))))
 (let (($x699 (not (= |v8:1_st| (RMk1 val!505)))))
 (and $x699 $x501 $x655 $x729 $x945 $x1207))))))))))))))))))))))))))))))))))))))))))))))))))))))))
 )
 )
 )
 )
 )
 )
 )
 )
 )
 )
(check-sat)
